
******************************************************************************
This program contains Ipopt, a library for large-scale nonlinear optimization.
 Ipopt is released as open source code under the Eclipse Public License (EPL).
         For more information visit http://projects.coin-or.org/Ipopt

This version of Ipopt was compiled from source code available at
    https://github.com/IDAES/Ipopt as part of the Institute for the Design of
    Advanced Energy Systems Process Systems Engineering Framework (IDAES PSE
    Framework) Copyright (c) 2018-2019. See https://github.com/IDAES/idaes-pse.

This version of Ipopt was compiled using HSL, a collection of Fortran codes
    for large-scale scientific computation.  All technical papers, sales and
    publicity material resulting from use of the HSL codes within IPOPT must
    contain the following acknowledgement:
        HSL, a collection of Fortran codes for large-scale scientific
        computation. See http://www.hsl.rl.ac.uk.
******************************************************************************

This is Ipopt version 3.13.2, running with linear solver ma27.

Number of nonzeros in equality constraint Jacobian...:      928
Number of nonzeros in inequality constraint Jacobian.:        0
Number of nonzeros in Lagrangian Hessian.............:      806

Total number of variables............................:      403
                     variables with only lower bounds:      124
                variables with lower and upper bounds:      217
                     variables with only upper bounds:        0
Total number of equality constraints.................:      402
Total number of inequality constraints...............:        0
        inequality constraints with only lower bounds:        0
   inequality constraints with lower and upper bounds:        0
        inequality constraints with only upper bounds:        0

iter    objective    inf_pr   inf_du lg(mu)  ||d||  lg(rg) alpha_du alpha_pr  ls
   0  0.0000000e+00 1.36e+00 1.60e-14  -1.0 0.00e+00    -  0.00e+00 0.00e+00   0
   1  5.5623653e-02 9.72e-01 5.64e+03  -1.0 7.16e+04    -  5.28e-01 3.09e-01h  2
   2  1.9293948e-01 6.15e-01 1.65e+04  -1.0 4.51e+04    -  6.04e-01 3.96e-01h  1
   3  1.9579110e-01 6.06e-01 1.63e+04  -1.0 1.13e+05    -  6.49e-01 1.43e-02h  1
   4  1.4658462e+00 4.01e-01 9.94e+03  -1.0 1.66e+05    -  7.47e-01 3.75e-01h  1
   5  9.6845562e+00 6.76e-02 2.05e+03  -1.0 1.13e+05    -  8.58e-01 9.90e-01h  1
   6  1.0576524e+01 2.83e-03 8.60e+01  -1.0 8.11e+03    -  9.68e-01 9.90e-01h  1
   7  1.0599196e+01 3.26e-05 4.19e+04  -1.0 2.04e+02    -  8.82e-01 9.90e-01h  1
   8  1.0646189e+01 3.06e-05 1.16e+07  -1.0 6.93e+03    -  3.62e-01 6.19e-02f  5
   9  1.0820437e+01 4.44e-06 2.05e+07  -1.0 1.60e+03    -  4.94e-01 9.90e-01H  1
iter    objective    inf_pr   inf_du lg(mu)  ||d||  lg(rg) alpha_du alpha_pr  ls
  10  1.0822798e+01 4.43e-06 4.07e+09  -1.0 5.52e+03    -  9.90e-01 3.87e-03h  9
  11  1.1270349e+01 3.09e-06 1.84e+09  -1.0 4.03e+03    -  5.38e-01 9.90e-01H  1
  12  1.1549768e+01 1.05e-06 1.46e+09  -1.0 2.48e+03    -  9.94e-01 9.90e-01H  1
  13  1.1528229e+01 5.03e-07 4.17e+11  -1.0 1.90e+02    -  1.00e+00 9.90e-01h  1
In iteration 13, 31 Slacks too small, adjusting variable bounds
  14  1.1527571e+01 5.42e-09 4.17e+13  -1.0 5.81e+00    -  1.00e+00 9.90e-01h  1
  15  1.1527564e+01 3.60e-12 2.11e-01  -1.0 6.07e-02    -  1.00e+00 1.00e+00h  1
  16  1.1525679e+01 3.78e-09 4.17e+13  -9.0 1.30e+04    -  9.82e-01 1.27e-03f 10
  17  1.1524739e+01 4.71e-09 4.24e+13  -9.0 1.29e+04    -  9.84e-01 6.37e-04f 11
  18  1.1524269e+01 4.95e-09 4.24e+13  -9.0 1.20e+04    -  9.88e-01 3.44e-04f 12
  19  1.1523800e+01 5.18e-09 4.24e+13  -9.0 1.10e+04    -  1.00e+00 3.72e-04f 12
iter    objective    inf_pr   inf_du lg(mu)  ||d||  lg(rg) alpha_du alpha_pr  ls
  20  1.1523330e+01 5.41e-09 4.24e+13  -9.0 1.03e+04    -  1.00e+00 3.99e-04f 12
  21  1.0583926e+01 9.54e-04 5.78e+12  -9.0 9.73e+03    -  1.00e+00 8.64e-01f  1
  22  1.0589045e+01 1.81e-06 1.07e-02  -9.0 4.87e+01    -  9.94e-01 1.00e+00h  1
  23  1.0589045e+01 7.20e-12 2.06e-07  -9.0 1.17e-03    -  1.00e+00 1.00e+00h  1

Number of Iterations....: 23

                                   (scaled)                 (unscaled)
Objective...............:   1.0589045185512784e+01    1.0589045185512784e+01
Dual infeasibility......:   2.0564928519628053e-07    2.0564928519628053e-07
Constraint violation....:   7.1967987125276522e-12    7.1967987125276522e-12
Complementarity.........:   9.3389963177557033e-10    9.3389963177557033e-10
Overall NLP error.......:   8.3220762645680933e-10    2.0564928519628053e-07


Number of objective function evaluations             = 114
Number of objective gradient evaluations             = 24
Number of equality constraint evaluations            = 114
Number of inequality constraint evaluations          = 0
Number of equality constraint Jacobian evaluations   = 24
Number of inequality constraint Jacobian evaluations = 0
Number of Lagrangian Hessian evaluations             = 23
Total CPU secs in IPOPT (w/o function evaluations)   =      0.053
Total CPU secs in NLP function evaluations           =      1.099

EXIT: Optimal Solution Found.
